NAME : traveling-santa-2018-prime-paths.31631.tour
COMMENT : Length = 31631
COMMENT : Found by LKH [Keld Helsgaun] Sun Jun 12 20:00:10 2022
TYPE : TOUR
DIMENSION : 100
TOUR_SECTION
1
19
91
45
39
6
44
78
97
66
35
63
25
60
100
37
8
96
92
51
62
12
33
94
87
9
24
50
80
76
89
54
90
20
27
72
2
57
59
58
23
38
32
4
26
56
14
74
53
67
55
43
36
99
79
95
16
15
73
69
65
85
21
83
17
68
77
40
41
84
47
70
30
61
64
88
11
42
48
34
49
82
71
22
28
3
29
98
18
93
75
31
81
52
7
10
13
86
5
46
-1
EOF
